NAME          
ROWS
 N  OBJ
 L  c1
 L  c2
 L  c3
 L  c4
 L  c5
COLUMNS
    MARKER    'MARKER'                 'INTORG'
    x[1]      c1        217
    x[1]      c2        946
    x[1]      c3        625
    x[1]      c4        252
    x[1]      c5        669
    x[1]      OBJ       -339
    x[2]      c1        542
    x[2]      c2        561
    x[2]      c3        395
    x[2]      c4        349
    x[2]      c5        783
    x[2]      OBJ       -297
    x[3]      c1        586
    x[3]      c2        198
    x[3]      c3        22
    x[3]      c4        478
    x[3]      c5        495
    x[3]      OBJ       -586
    x[4]      c1        716
    x[4]      c2        462
    x[4]      c3        94
    x[4]      c4        128
    x[4]      c5        534
    x[4]      OBJ       -183
    x[5]      c1        754
    x[5]      c2        194
    x[5]      c3        543
    x[5]      c4        188
    x[5]      c5        241
    x[5]      OBJ       -96
    x[6]      c1        871
    x[6]      c2        753
    x[6]      c3        152
    x[6]      c4        985
    x[6]      c5        288
    x[6]      OBJ       -976
    x[7]      c1        650
    x[7]      c2        340
    x[7]      c3        458
    x[7]      c4        163
    x[7]      c5        671
    x[7]      OBJ       -982
    x[8]      c1        565
    x[8]      c2        329
    x[8]      c3        929
    x[8]      c4        148
    x[8]      c5        617
    x[8]      OBJ       -137
    x[9]      c1        814
    x[9]      c2        562
    x[9]      c3        977
    x[9]      c4        277
    x[9]      c5        486
    x[9]      OBJ       -812
    x[10]     c1        115
    x[10]     c2        657
    x[10]     c3        486
    x[10]     c4        659
    x[10]     c5        988
    x[10]     OBJ       -861
    x[11]     c1        991
    x[11]     c2        692
    x[11]     c3        181
    x[11]     c4        936
    x[11]     c5        684
    x[11]     OBJ       -775
    x[12]     c1        51
    x[12]     c2        558
    x[12]     c3        679
    x[12]     c4        927
    x[12]     c5        253
    x[12]     OBJ       -749
    x[13]     c1        643
    x[13]     c2        752
    x[13]     c3        418
    x[13]     c4        812
    x[13]     c5        405
    x[13]     OBJ       -665
    x[14]     c1        129
    x[14]     c2        498
    x[14]     c3        584
    x[14]     c4        444
    x[14]     c5        969
    x[14]     OBJ       -845
    x[15]     c1        509
    x[15]     c2        676
    x[15]     c3        46
    x[15]     c4        310
    x[15]     c5        163
    x[15]     OBJ       -642
    x[16]     c1        200
    x[16]     c2        227
    x[16]     c3        73
    x[16]     c4        833
    x[16]     c5        867
    x[16]     OBJ       -840
    x[17]     c1        327
    x[17]     c2        152
    x[17]     c3        728
    x[17]     c4        97
    x[17]     c5        155
    x[17]     OBJ       -962
    x[18]     c1        825
    x[18]     c2        84
    x[18]     c3        362
    x[18]     c4        896
    x[18]     c5        132
    x[18]     OBJ       -396
    x[19]     c1        664
    x[19]     c2        383
    x[19]     c3        72
    x[19]     c4        452
    x[19]     c5        698
    x[19]     OBJ       -302
    x[20]     c1        72
    x[20]     c2        406
    x[20]     c3        194
    x[20]     c4        235
    x[20]     c5        996
    x[20]     OBJ       -785
RHS
    rhs       c1        5120
    rhs       c2        4715
    rhs       c3        4009
    rhs       c4        4784
    rhs       c5        5547
RANGES
BOUNDS
 BV bounds    x[1]
 BV bounds    x[2]
 BV bounds    x[3]
 BV bounds    x[4]
 BV bounds    x[5]
 BV bounds    x[6]
 BV bounds    x[7]
 BV bounds    x[8]
 BV bounds    x[9]
 BV bounds    x[10]
 BV bounds    x[11]
 BV bounds    x[12]
 BV bounds    x[13]
 BV bounds    x[14]
 BV bounds    x[15]
 BV bounds    x[16]
 BV bounds    x[17]
 BV bounds    x[18]
 BV bounds    x[19]
 BV bounds    x[20]
ENDATA
